\ LP format - for model browsing. Use MPS format to capture full model detail.
Maximize
obj:   x[1] + x[2] + x[133] + x[134] + x[136] + x[10] + x[11] + x[130] + x[142]
   + x[15] + x[145] + x[146] + x[21] + x[22] + x[28] + x[37] + x[41]
   + x[44] + x[58] + x[62] + x[73] + x[74] + x[79] + x[93] + x[102]
   + x[105] + x[114] + x[116] + x[125] + x[126] + x[127] + x[4] + x[5]
   + x[6] + x[135] + x[8] + x[141] + x[132] + x[33] + x[35] + x[39] + x[49]
   + x[50] + x[57] + x[75] + x[88] + x[90] + x[91] + x[92] + x[111]
   + x[113] + x[120] + x[121] + x[124] + x[3] + x[129] + x[9] + x[139]
   + x[148] + x[30] + x[32] + x[42] + x[54] + x[56] + x[64] + x[66] + x[70]
   + x[80] + x[84] + x[86] + x[87] + x[94] + x[112] + x[115] + x[51]
   + x[13] + x[18] + x[147] + x[25] + x[26] + x[140] + x[149] + x[27]
   + x[36] + x[47] + x[48] + x[53] + x[60] + x[77] + x[89] + x[98] + x[99]
   + x[101] + x[103] + x[104] + x[123] + x[138] + x[14] + x[31] + x[45]
   + x[72] + x[95] + x[106] + x[108] + x[7] + x[19] + x[65] + x[131]
   + x[100] + x[40] + x[137] + x[43] + x[61] + x[143] + x[144] + x[55]
   + x[82] + x[117] + x[17] + x[150] + x[38] + x[68] + x[69] + x[71]
   + x[76] + x[97] + x[110] + x[118] + x[12] + x[23] + x[122] + x[128]
   + x[46] + x[78] + x[107] + x[109] + x[119] + x[67] + x[20] + x[83]
   + x[24] + x[59] + x[16] + x[52] + x[96] + x[81] + x[29] + x[63] + x[34]
   + x[85]
Subject To
 clq1: x[142] + x[35] + x[39] + x[12] <= 1
 clq2: x[87] + x[94] + x[147] + x[100] <= 1
 clq3: x[5] + x[35] + x[53] + x[99] <= 1
 clq4: x[73] + x[127] + x[120] + x[100] <= 1
 clq5: x[74] + x[18] + x[103] + x[72] + x[144] <= 1
 clq6: x[127] + x[75] + x[98] + x[104] <= 1
 clq7: x[131] + x[137] + x[119] <= 1
 clq8: x[2] + x[33] + x[39] + x[111] <= 1
 clq9: x[35] + x[57] + x[68] <= 1
 clq10: x[88] + x[99] + x[108] + x[100] + x[119] <= 1
 clq11: x[113] + x[26] + x[98] + x[19] <= 1
 clq12: x[80] + x[94] + x[25] + x[104] <= 1
 clq13: x[73] + x[121] + x[139] + x[18] + x[131] <= 1
 clq14: x[62] + x[141] + x[50] + x[144] <= 1
 clq15: x[35] + x[30] + x[76] + x[16] <= 1
 clq16: x[121] + x[56] + x[26] + x[61] <= 1
 clq17: x[134] + x[33] + x[64] + x[19] <= 1
 clq18: x[5] + x[149] + x[48] + x[104] <= 1
 clq19: x[11] + x[120] + x[32] + x[19] <= 1
 clq20: x[145] + x[21] + x[114] + x[47] + x[143] <= 1
 clq21: x[142] + x[111] + x[72] <= 1
 clq22: x[129] + x[27] + x[100] + x[110] <= 1
 clq23: x[144] + x[23] + x[67] + x[85] <= 1
 clq24: x[127] + x[141] + x[57] + x[71] <= 1
 clq25: x[134] + x[93] + x[86] + x[131] + x[110] <= 1
 clq26: x[35] + x[80] + x[45] + x[40] <= 1
 clq27: x[30] + x[56] + x[98] + x[137] <= 1
 clq28: x[129] + x[87] + x[68] + x[34] <= 1
 clq29: x[11] + x[111] + x[94] <= 1
 clq30: x[142] + x[8] + x[139] + x[101] <= 1
 clq31: x[11] + x[58] + x[33] + x[88] <= 1
 clq32: x[74] + x[60] + x[52] <= 1
 clq33: x[90] + x[66] + x[104] + x[143] <= 1
 clq34: x[58] + x[35] + x[92] + x[24] <= 1
 clq35: x[57] + x[48] + x[109] <= 1
 clq36: x[15] + x[26] + x[72] <= 1
 clq37: x[144] + x[122] + x[83] <= 1
 clq38: x[146] + x[88] + x[32] + x[17] <= 1
 clq39: x[41] + x[116] + x[39] + x[48] <= 1
 clq40: x[49] + x[94] + x[96] <= 1
 clq41: x[42] + x[100] + x[96] <= 1
 clq42: x[13] + x[147] + x[138] + x[61] <= 1
 clq43: x[37] + x[108] + x[55] <= 1
 clq44: x[74] + x[71] + x[78] <= 1
 clq45: x[105] + x[45] + x[109] + x[119] <= 1
 clq46: x[1] + x[62] + x[73] + x[74] <= 1
 clq47: x[114] + x[53] + x[101] + x[59] <= 1
 clq48: x[125] + x[33] + x[113] + x[120] <= 1
 clq49: x[127] + x[92] + x[131] + x[67] <= 1
 clq50: x[50] + x[32] + x[137] <= 1
 clq51: x[111] + x[67] + x[52] + x[81] <= 1
 clq52: x[56] + x[80] + x[20] + x[34] <= 1
 clq53: x[133] + x[64] + x[87] + x[122] <= 1
 clq54: x[130] + x[60] + x[98] <= 1
 clq55: x[47] + x[72] + x[106] + x[150] <= 1
 clq56: x[93] + x[8] + x[42] + x[82] <= 1
 clq57: x[126] + x[5] + x[141] + x[140] <= 1
 clq58: x[58] + x[49] + x[139] + x[46] <= 1
 clq59: x[125] + x[90] + x[144] <= 1
 clq60: x[66] + x[117] + x[71] <= 1
 clq61: x[130] + x[141] + x[94] + x[137] <= 1
 clq62: x[39] + x[88] + x[25] + x[14] + x[144] <= 1
 clq63: x[26] + x[103] + x[65] + x[85] <= 1
 clq64: x[101] + x[108] + x[76] <= 1
 clq65: x[136] + x[102] + x[100] <= 1
 clq66: x[139] + x[60] + x[55] + x[78] <= 1
 clq67: x[36] + x[19] + x[68] + x[24] <= 1
 clq68: x[1] + x[2] + x[134] + x[116] <= 1
 clq69: x[10] + x[21] + x[113] + x[12] <= 1
 clq70: x[15] + x[146] + x[57] + x[129] <= 1
 clq71: x[22] + x[66] + x[98] + x[119] <= 1
 clq72: x[50] + x[138] + x[40] + x[85] <= 1
 clq73: x[30] + x[104] + x[71] + x[128] <= 1
 clq74: x[70] + x[13] + x[100] + x[83] <= 1
 clq75: x[79] + x[148] + x[61] + x[122] <= 1
 clq76: x[9] + x[48] + x[118] <= 1
 clq77: x[142] + x[6] + x[108] <= 1
 clq78: x[73] + x[50] + x[124] + x[16] <= 1
 clq79: x[2] + x[102] + x[114] + x[35] <= 1
 clq80: x[127] + x[18] + x[45] + x[29] <= 1
 clq81: x[75] + x[120] + x[143] + x[109] <= 1
 clq82: x[90] + x[111] + x[56] + x[87] <= 1
 clq83: x[33] + x[3] + x[30] + x[84] <= 1
 clq84: x[134] + x[115] + x[122] + x[81] <= 1
 clq85: x[149] + x[89] + x[52] <= 1
 clq86: x[147] + x[72] + x[7] + x[131] <= 1
 clq87: x[132] + x[42] + x[95] + x[76] <= 1
 clq88: x[8] + x[143] + x[55] + x[117] <= 1
 clq89: x[39] + x[98] + x[110] + x[63] <= 1
 clq90: x[136] + x[33] + x[13] + x[20] <= 1
 clq91: x[21] + x[64] + x[96] <= 1
 clq92: x[11] + x[126] + x[17] <= 1
 clq93: x[37] + x[42] + x[26] <= 1
 clq94: x[44] + x[5] + x[49] <= 1
 clq95: x[93] + x[27] + x[23] + x[24] <= 1
 clq96: x[91] + x[70] + x[34] <= 1
 clq97: x[92] + x[150] + x[52] <= 1
 clq98: x[32] + x[25] + x[53] <= 1
 clq99: x[54] + x[48] + x[78] <= 1
 clq100: x[142] + x[80] + x[65] <= 1
 clq101: x[6] + x[86] + x[138] + x[31] <= 1
 clq102: x[10] + x[94] + x[118] <= 1
 clq103: x[9] + x[60] + x[68] + x[97] <= 1
 clq104: x[137] + x[12] + x[46] <= 1
 clq105: x[145] + x[74] + x[26] <= 1
 clq106: x[146] + x[14] + x[82] <= 1
 clq107: x[22] + x[49] + x[47] <= 1
 clq108: x[116] + x[57] + x[72] + x[29] <= 1
 clq109: x[125] + x[126] + x[119] + x[96] <= 1
 clq110: x[113] + x[89] + x[108] <= 1
 clq111: x[115] + x[101] + x[61] + x[67] <= 1
 clq112: x[87] + x[103] + x[104] <= 1
 clq113: x[130] + x[40] + x[150] <= 1
 clq114: x[1] + x[11] + x[37] + x[127] <= 1
 clq115: x[15] + x[149] + x[17] <= 1
 clq116: x[44] + x[3] + x[139] <= 1
 clq117: x[62] + x[105] + x[5] <= 1
 clq118: x[73] + x[33] + x[140] + x[78] <= 1
 clq119: x[114] + x[148] + x[95] <= 1
 clq120: x[35] + x[64] + x[77] + x[65] <= 1
 clq121: x[75] + x[19] + x[117] + x[34] <= 1
 clq122: x[62] + x[90] + x[80] <= 1
 clq123: x[91] + x[94] + x[112] + x[45] <= 1
 clq124: x[92] + x[54] + x[137] <= 1
 clq125: x[111] + x[18] + x[63] <= 1
 clq126: x[32] + x[66] + x[16] <= 1
 clq127: x[124] + x[56] + x[70] + x[53] <= 1
 clq128: x[84] + x[82] + x[71] <= 1
 clq129: x[8] + x[141] + x[106] <= 1
 clq130: x[135] + x[100] + x[17] + x[81] <= 1
 clq131: x[136] + x[54] + x[76] + x[52] <= 1
 clq132: x[10] + x[145] + x[110] <= 1
 clq133: x[74] + x[14] + x[118] + x[20] <= 1
 clq134: x[131] + x[46] + x[83] <= 1
 clq135: x[147] + x[144] + x[12] + x[107] <= 1
 clq136: x[44] + x[135] + x[25] + x[109] <= 1
 clq137: x[133] + x[27] + x[104] + x[108] <= 1
 clq138: x[142] + x[21] + x[129] <= 1
 clq139: x[146] + x[86] + x[23] <= 1
 clq140: x[22] + x[103] + x[23] <= 1
 clq141: x[41] + x[105] + x[31] <= 1
 clq142: x[58] + x[89] + x[95] <= 1
 clq143: x[130] + x[93] + x[99] <= 1
 clq144: x[102] + x[47] + x[109] <= 1
 clq145: x[2] + x[4] + x[141] + x[120] <= 1
 clq146: x[134] + x[87] + x[51] + x[71] <= 1
 clq147: x[48] + x[65] + x[55] <= 1
 clq148: x[10] + x[5] + x[25] + x[123] <= 1
 clq149: x[30] + x[40] + x[34] <= 1
 clq150: x[68] + x[16] + x[96] <= 1
 clq151: x[15] + x[148] + x[24] <= 1
 clq152: x[28] + x[3] + x[66] <= 1
 clq153: x[114] + x[115] + x[13] <= 1
 clq154: x[116] + x[49] + x[108] <= 1
 clq155: x[125] + x[26] + x[140] <= 1
 clq156: x[6] + x[9] + x[87] <= 1
 clq157: x[102] + x[50] + x[57] + x[17] <= 1
 clq158: x[88] + x[72] + x[61] <= 1
 clq159: x[90] + x[101] + x[106] <= 1
 clq160: x[92] + x[149] + x[101] <= 1
 clq161: x[111] + x[99] + x[68] + x[85] <= 1
 clq162: x[113] + x[150] + x[46] <= 1
 clq163: x[114] + x[121] + x[32] + x[147] <= 1
 clq164: x[9] + x[66] + x[80] + x[110] <= 1
 clq165: x[8] + x[84] + x[19] <= 1
 clq166: x[142] + x[60] + x[43] + x[122] <= 1
 clq167: x[11] + x[82] + x[119] <= 1
 clq168: x[35] + x[121] + x[138] + x[83] <= 1
 clq169: x[28] + x[131] + x[63] <= 1
 clq170: x[1] + x[145] + x[93] <= 1
 clq171: x[146] + x[139] + x[84] <= 1
 clq172: x[134] + x[21] + x[29] <= 1
 clq173: x[22] + x[126] + x[56] <= 1
 clq174: x[37] + x[93] + x[39] <= 1
 clq175: x[41] + x[143] + x[107] <= 1
 clq176: x[58] + x[6] + x[45] <= 1
 clq177: x[73] + x[77] + x[137] + x[81] <= 1
 clq178: x[79] + x[40] + x[119] <= 1
 clq179: x[15] + x[127] + x[36] + x[48] <= 1
 clq180: x[75] + x[31] + x[106] + x[68] <= 1
 clq181: x[91] + x[53] + x[83] <= 1
 clq182: x[129] + x[137] + x[67] <= 1
 clq183: x[3] + x[42] + x[54] + x[86] <= 1
 clq184: x[64] + x[47] + x[52] <= 1
 clq185: x[5] + x[94] + x[18] <= 1
 clq186: x[32] + x[112] + x[20] <= 1
 clq187: x[89] + x[100] + x[107] <= 1
 clq188: x[74] + x[13] + x[98] <= 1
 clq189: x[148] + x[103] + x[69] <= 1
 clq190: x[90] + x[40] + x[55] + x[118] <= 1
 clq191: x[41] + x[117] + x[76] <= 1
 clq192: x[136] + x[97] + x[83] <= 1
 clq193: x[130] + x[56] + x[78] <= 1
 clq194: x[133] + x[86] + x[14] <= 1
 clq195: x[62] + x[139] + x[150] <= 1
 clq196: x[105] + x[46] + x[20] <= 1
 clq197: x[116] + x[27] + x[34] <= 1
 clq198: x[125] + x[127] + x[16] <= 1
 clq199: x[49] + x[12] + x[122] <= 1
 clq200: x[57] + x[88] + x[63] <= 1
 clq201: x[10] + x[92] + x[30] + x[60] <= 1
 clq202: x[113] + x[149] + x[29] <= 1
 clq203: x[120] + x[110] + x[24] <= 1
 clq204: x[41] + x[70] + x[61] <= 1
 clq205: x[126] + x[51] + x[26] <= 1
 clq206: x[104] + x[96] <= 1
 clq207: x[8] + x[27] + x[123] <= 1
 clq208: x[129] + x[95] + x[65] <= 1
 clq209: x[37] + x[144] + x[128] <= 1
 clq210: x[140] + x[119] + x[59] + x[52] <= 1
 clq211: x[1] + x[130] + x[146] + x[44] <= 1
 clq212: x[2] + x[145] + x[50] <= 1
 clq213: x[11] + x[89] + x[45] <= 1
 clq214: x[1] + x[21] + x[58] <= 1
 clq215: x[22] + x[74] + x[131] <= 1
 clq216: x[79] + x[53] + x[19] + x[81] <= 1
 clq217: x[102] + x[39] + x[85] <= 1
 clq218: x[91] + x[96] <= 1
 clq219: x[111] + x[47] + x[29] <= 1
 clq220: x[64] + x[143] + x[46] <= 1
 clq221: x[80] + x[112] + x[76] <= 1
 clq222: x[94] + x[131] + x[97] <= 1
 clq223: x[115] + x[103] + x[100] <= 1
 clq224: x[6] + x[18] + x[98] <= 1
 clq225: x[73] + x[104] + x[23] <= 1
 clq226: x[136] + x[145] + x[27] + x[72] <= 1
 clq227: x[93] + x[149] + x[43] <= 1
 clq228: x[82] + x[117] <= 1
 clq229: x[138] + x[71] <= 1
 clq230: x[133] + x[51] + x[78] <= 1
 clq231: x[14] + x[109] <= 1
 clq232: x[66] + x[45] + x[12] + x[67] <= 1
 clq233: x[142] + x[105] + x[50] + x[48] <= 1
 clq234: x[28] + x[79] + x[42] <= 1
 clq235: x[62] + x[93] + x[101] <= 1
 clq236: x[116] + x[61] + x[69] <= 1
 clq237: x[125] + x[35] + x[82] <= 1
 clq238: x[141] + x[123] + x[108] + x[20] <= 1
 clq239: x[49] + x[3] + x[129] <= 1
 clq240: x[75] + x[150] + x[23] <= 1
 clq241: x[88] + x[71] + x[110] <= 1
 clq242: x[91] + x[138] + x[144] <= 1
 clq243: x[113] + x[13] <= 1
 clq244: x[22] + x[120] + x[16] <= 1
 clq245: x[148] + x[84] <= 1
 clq246: x[70] + x[31] + x[71] <= 1
 clq247: x[114] + x[26] + x[117] <= 1
 clq248: x[111] + x[95] + x[96] <= 1
 clq249: x[132] + x[55] + x[107] <= 1
 clq250: x[134] + x[118] + x[23] <= 1
 clq251: x[128] + x[63] + x[34] <= 1
 clq252: x[33] + x[139] + x[109] <= 1
 clq253: x[98] + x[14] + x[24] <= 1
 clq254: x[2] + x[5] + x[90] <= 1
 clq255: x[11] + x[38] <= 1
 clq256: x[15] + x[4] + x[18] <= 1
 clq257: x[21] + x[135] + x[80] <= 1
 clq258: x[37] + x[120] + x[45] + x[65] <= 1
 clq259: x[28] + x[58] + x[115] <= 1
 clq260: x[126] + x[106] + x[78] <= 1
 clq261: x[8] + x[104] + x[137] <= 1
 clq262: x[39] + x[84] + x[97] <= 1
 clq263: x[57] + x[51] + x[99] <= 1
 clq264: x[92] + x[143] <= 1
 clq265: x[113] + x[148] + x[77] <= 1
 clq266: x[9] + x[17] + x[76] <= 1
 clq267: x[30] + x[54] + x[94] + x[89] <= 1
 clq268: x[32] + x[26] + x[122] <= 1
 clq269: x[56] + x[47] + x[97] <= 1
 clq270: x[105] + x[64] + x[150] <= 1
 clq271: x[87] + x[55] + x[67] <= 1
 clq272: x[112] + x[101] + x[100] + x[97] <= 1
 clq273: x[133] + x[62] + x[13] <= 1
 clq274: x[147] + x[69] + x[109] <= 1
 clq275: x[125] + x[25] + x[38] <= 1
 clq276: x[139] + x[103] + x[59] <= 1
 clq277: x[22] + x[43] + x[85] <= 1
 clq278: x[11] + x[6] + x[95] <= 1
 clq279: x[146] + x[21] + x[102] <= 1
 clq280: x[44] + x[35] + x[128] <= 1
 clq281: x[133] + x[73] + x[92] <= 1
 clq282: x[74] + x[40] <= 1
 clq283: x[116] + x[54] + x[117] <= 1
 clq284: x[58] + x[127] + x[70] <= 1
 clq285: x[49] + x[72] <= 1
 clq286: x[75] + x[140] <= 1
 clq287: x[2] + x[88] + x[92] <= 1
 clq288: x[132] + x[91] + x[77] <= 1
 clq289: x[130] + x[121] + x[149] <= 1
 clq290: x[42] + x[108] + x[16] <= 1
 clq291: x[86] + x[99] + x[76] <= 1
 clq292: x[53] + x[143] <= 1
 clq293: x[13] + x[60] + x[118] <= 1
 clq294: x[90] + x[31] + x[19] <= 1
 clq295: x[131] + x[61] + x[82] <= 1
 clq296: x[135] + x[19] + x[144] <= 1
 clq297: x[46] + x[24] <= 1
 clq298: x[143] + x[59] + x[96] <= 1
 clq299: x[87] + x[40] + x[63] <= 1
 clq300: x[134] + x[70] + x[98] <= 1
 clq301: x[136] + x[37] + x[68] <= 1
 clq302: x[10] + x[103] <= 1
 clq303: x[142] + x[74] + x[115] <= 1
 clq304: x[15] + x[49] <= 1
 clq305: x[41] + x[33] <= 1
 clq306: x[114] + x[129] <= 1
 clq307: x[126] + x[14] + x[95] <= 1
 clq308: x[4] + x[57] + x[75] <= 1
 clq309: x[5] + x[36] + x[47] <= 1
 clq310: x[8] + x[35] + x[9] <= 1
 clq311: x[141] + x[3] + x[80] <= 1
 clq312: x[39] + x[26] + x[46] <= 1
 clq313: x[111] + x[48] <= 1
 clq314: x[113] + x[147] + x[95] <= 1
 clq315: x[124] + x[24] <= 1
 clq316: x[148] + x[94] + x[53] <= 1
 clq317: x[32] + x[99] + x[78] <= 1
 clq318: x[56] + x[110] + x[12] <= 1
 clq319: x[127] + x[64] + x[34] <= 1
 clq320: x[44] + x[84] + x[7] <= 1
 clq321: x[18] + x[140] + x[149] + x[100] <= 1
 clq322: x[129] + x[25] + x[72] <= 1
 clq323: x[145] + x[60] + x[104] <= 1
 clq324: x[123] + x[138] + x[55] <= 1
 clq325: x[106] + x[119] <= 1
 clq326: x[137] + x[43] + x[107] <= 1
 clq327: x[44] + x[83] + x[29] <= 1
 clq328: x[65] + x[38] + x[52] <= 1
 clq329: x[69] + x[81] + x[34] <= 1
 clq330: x[79] + x[72] + x[85] <= 1
 clq331: x[1] + x[102] <= 1
 clq332: x[10] + x[66] + x[122] <= 1
 clq333: x[11] + x[90] + x[109] <= 1
 clq334: x[15] + x[42] <= 1
 clq335: x[146] + x[148] + x[119] <= 1
 clq336: x[28] + x[143] + x[144] <= 1
 clq337: x[41] + x[125] + x[103] <= 1
 clq338: x[62] + x[6] + x[91] <= 1
 clq339: x[73] + x[106] + x[128] <= 1
 clq340: x[114] + x[138] + x[24] <= 1
 clq341: x[116] + x[111] + x[115] <= 1
 clq342: x[33] + x[17] <= 1
 clq343: x[2] + x[49] + x[121] <= 1
 clq344: x[50] + x[9] + x[71] <= 1
 clq345: x[88] + x[13] + x[48] <= 1
 clq346: x[133] + x[124] + x[61] <= 1
 clq347: x[30] + x[36] + x[117] <= 1
 clq348: x[86] + x[16] <= 1
 clq349: x[134] + x[3] + x[112] <= 1
 clq350: x[4] + x[51] <= 1
 clq351: x[139] + x[89] + x[67] <= 1
 clq352: x[125] + x[31] + x[118] <= 1
 clq353: x[103] + x[82] + x[150] <= 1
 clq354: x[132] + x[98] + x[20] <= 1
 clq355: x[141] + x[96] <= 1
 clq356: x[113] + x[42] + x[63] <= 1
 clq357: x[1] + x[136] + x[105] <= 1
 clq358: x[130] + x[7] <= 1
 clq359: x[142] + x[56] + x[76] <= 1
 clq360: x[142] + x[15] + x[120] + x[59] <= 1
 clq361: x[21] + x[8] + x[32] <= 1
 clq362: x[22] + x[33] <= 1
 clq363: x[58] + x[98] + x[16] <= 1
 clq364: x[74] + x[55] + x[17] <= 1
 clq365: x[93] + x[114] + x[75] <= 1
 clq366: x[102] + x[116] + x[131] <= 1
 clq367: x[126] + x[46] <= 1
 clq368: x[116] + x[5] + x[101] <= 1
 clq369: x[135] + x[104] + x[14] <= 1
 clq370: x[39] + x[86] <= 1
 clq371: x[57] + x[18] + x[81] <= 1
 clq372: x[64] + x[84] <= 1
 clq373: x[49] + x[80] + x[68] <= 1
 clq374: x[28] + x[87] + x[77] <= 1
 clq375: x[51] + x[65] + x[43] <= 1
 clq376: x[136] + x[147] + x[123] <= 1
 clq377: x[130] + x[4] + x[25] <= 1
 clq378: x[27] + x[40] <= 1
 clq379: x[13] + x[47] + x[110] <= 1
 clq380: x[53] + x[107] + x[20] <= 1
 clq381: x[22] + x[108] + x[29] <= 1
 clq382: x[79] + x[84] + x[12] <= 1
 clq383: x[35] + x[23] <= 1
 clq384: x[46] + x[78] + x[85] <= 1
 clq385: x[66] + x[36] + x[83] <= 1
 clq386: x[146] + x[80] + x[52] <= 1
 clq387: x[71] + x[96] <= 1
 clq388: x[10] + x[23] <= 1
 clq389: x[11] + x[70] + x[128] <= 1
 clq390: x[145] + x[91] + x[56] <= 1
 clq391: x[37] + x[48] <= 1
 clq392: x[41] + x[111] + x[112] <= 1
 clq393: x[62] + x[7] + x[19] <= 1
 clq394: x[73] + x[117] <= 1
 clq395: x[126] + x[148] + x[63] <= 1
 clq396: x[127] + x[121] + x[69] <= 1
 clq397: x[6] + x[94] + x[106] <= 1
 clq398: x[141] + x[129] <= 1
 clq399: x[33] + x[38] <= 1
 clq400: x[39] + x[118] <= 1
 clq401: x[50] + x[119] <= 1
 clq402: x[88] + x[137] <= 1
 clq403: x[92] + x[99] <= 1
 clq404: x[124] + x[144] <= 1
 clq405: x[30] + x[109] <= 1
 clq406: x[3] + x[64] + x[115] <= 1
 clq407: x[86] + x[140] <= 1
 clq408: x[73] + x[112] + x[26] <= 1
 clq409: x[27] + x[36] + x[67] <= 1
 clq410: x[5] + x[60] + x[89] <= 1
 clq411: x[135] + x[31] <= 1
 clq412: x[104] + x[40] <= 1
 clq413: x[7] + x[100] + x[61] <= 1
 clq414: x[45] + x[82] + x[96] <= 1
 clq415: x[9] + x[150] + x[69] <= 1
 clq416: x[100] + x[122] + x[24] <= 1
 clq417: x[1] + x[10] + x[126] <= 1
 clq418: x[2] + x[74] + x[132] <= 1
 clq419: x[134] + x[123] + x[96] <= 1
 clq420: x[21] + x[14] + x[40] <= 1
 clq421: x[37] + x[105] + x[99] <= 1
 clq422: x[58] + x[38] <= 1
 clq423: x[93] + x[108] <= 1
 clq424: x[102] + x[113] + x[101] <= 1
 clq425: x[8] + x[54] + x[144] <= 1
 clq426: x[141] + x[107] <= 1
 clq427: x[33] + x[90] + x[34] <= 1
 clq428: x[35] + x[42] + x[36] <= 1
 clq429: x[39] + x[75] + x[60] <= 1
 clq430: x[50] + x[72] + x[83] <= 1
 clq431: x[57] + x[53] <= 1
 clq432: x[130] + x[88] + x[89] <= 1
 clq433: x[92] + x[110] <= 1
 clq434: x[124] + x[129] + x[71] <= 1
 clq435: x[139] + x[47] <= 1
 clq436: x[37] + x[30] + x[77] <= 1
 clq437: x[132] + x[32] + x[67] <= 1
 clq438: x[70] + x[86] <= 1
 clq439: x[87] + x[19] + x[78] <= 1
 clq440: x[51] + x[76] <= 1
 clq441: x[147] + x[137] <= 1
 clq442: x[25] + x[143] <= 1
 clq443: x[140] + x[68] + x[29] <= 1
 clq444: x[115] + x[149] + x[12] <= 1
 clq445: x[48] + x[97] <= 1
 clq446: x[138] + x[16] <= 1
 clq447: x[133] + x[31] <= 1
 clq448: x[89] + x[131] + x[118] <= 1
 clq449: x[43] + x[81] <= 1
 clq450: x[117] + x[107] <= 1
 clq451: x[139] + x[17] <= 1
 clq452: x[141] + x[23] <= 1
 clq453: x[122] + x[109] + x[85] <= 1
 clq454: x[28] + x[43] + x[119] <= 1
 clq455: x[116] + x[110] + x[52] <= 1
 clq456: x[11] + x[135] <= 1
 clq457: x[15] + x[58] <= 1
 clq458: x[145] + x[55] <= 1
 clq459: x[146] + x[147] + x[143] <= 1
 clq460: x[22] + x[44] <= 1
 clq461: x[41] + x[64] + x[66] <= 1
 clq462: x[62] + x[111] <= 1
 clq463: x[79] + x[48] <= 1
 clq464: x[74] + x[93] + x[106] <= 1
 clq465: x[114] + x[57] <= 1
 clq466: x[125] + x[76] + x[85] <= 1
 clq467: x[127] + x[138] <= 1
 clq468: x[4] + x[92] <= 1
 clq469: x[6] + x[48] + x[103] <= 1
 clq470: x[49] + x[53] <= 1
 clq471: x[91] + x[65] + x[137] <= 1
 clq472: x[111] + x[120] + x[86] <= 1
 clq473: x[121] + x[104] <= 1
 clq474: x[35] + x[84] + x[108] <= 1
 clq475: x[94] + x[17] <= 1
 clq476: x[51] + x[24] <= 1
 clq477: x[18] + x[38] <= 1
 clq478: x[25] + x[31] <= 1
 clq479: x[26] + x[128] <= 1
 clq480: x[27] + x[16] + x[52] <= 1
 clq481: x[70] + x[47] <= 1
 clq482: x[140] + x[95] + x[23] <= 1
 clq483: x[61] + x[55] + x[81] <= 1
 clq484: x[56] + x[82] + x[63] <= 1
 clq485: x[33] + x[77] + x[117] <= 1
 clq486: x[104] + x[150] <= 1
 clq487: x[46] + x[109] + x[34] <= 1
 clq488: x[133] + x[20] <= 1
 clq489: x[129] + x[59] <= 1
 clq490: x[1] + x[15] <= 1
 clq491: x[2] + x[6] + x[135] <= 1
 clq492: x[134] + x[62] <= 1
 clq493: x[136] + x[5] + x[66] <= 1
 clq494: x[10] + x[97] <= 1
 clq495: x[11] + x[102] + x[92] + x[107] <= 1
 clq496: x[145] + x[139] <= 1
 clq497: x[21] + x[4] <= 1
 clq498: x[22] + x[80] + x[96] <= 1
 clq499: x[44] + x[98] <= 1
 clq500: x[58] + x[141] <= 1
 clq501: x[73] + x[47] + x[138] <= 1
 clq502: x[79] + x[113] <= 1
 clq503: x[93] + x[105] + x[29] <= 1
 clq504: x[114] + x[40] <= 1
 clq505: x[127] + x[88] <= 1
 clq506: x[8] + x[49] <= 1
 clq507: x[39] + x[3] + x[94] <= 1
 clq508: x[50] + x[36] + x[14] <= 1
 clq509: x[33] + x[57] + x[54] <= 1
 clq510: x[75] + x[138] + x[12] <= 1
 clq511: x[90] + x[72] <= 1
 clq512: x[121] + x[45] + x[76] <= 1
 clq513: x[124] + x[128] <= 1
 clq514: x[9] + x[131] <= 1
 clq515: x[3] + x[148] + x[87] <= 1
 clq516: x[30] + x[53] <= 1
 clq517: x[32] + x[40] <= 1
 clq518: x[42] + x[17] + x[83] <= 1
 clq519: x[51] + x[119] <= 1
 clq520: x[13] + x[31] <= 1
 clq521: x[18] + x[150] <= 1
 clq522: x[25] + x[24] <= 1
 clq523: x[26] + x[77] + x[118] <= 1
 clq524: x[9] + x[149] <= 1
 clq525: x[101] + x[71] <= 1
 clq526: x[123] + x[38] <= 1
 clq527: x[144] + x[20] <= 1
 clq528: x[131] + x[143] + x[68] <= 1
 clq529: x[27] + x[78] + x[59] <= 1
 clq530: x[1] + x[133] <= 1
 clq531: x[134] + x[65] <= 1
 clq532: x[10] + x[72] <= 1
 clq533: x[130] + x[38] <= 1
 clq534: x[142] + x[114] + x[31] <= 1
 clq535: x[15] + x[144] <= 1
 clq536: x[145] + x[13] <= 1
 clq537: x[146] + x[120] <= 1
 clq538: x[21] + x[46] <= 1
 clq539: x[28] + x[4] <= 1
 clq540: x[41] + x[108] <= 1
 clq541: x[44] + x[8] <= 1
 clq542: x[58] + x[91] + x[117] <= 1
 clq543: x[62] + x[125] + x[88] <= 1
 clq544: x[79] + x[98] <= 1
 clq545: x[126] + x[112] <= 1
 clq546: x[127] + x[23] <= 1
 clq547: x[141] + x[69] <= 1
 clq548: x[4] + x[49] <= 1
 clq549: x[90] + x[137] <= 1
 clq550: x[113] + x[20] <= 1
 clq551: x[2] + x[124] <= 1
 clq552: x[129] + x[104] <= 1
 clq553: x[139] + x[25] <= 1
 clq554: x[133] + x[30] <= 1
 clq555: x[32] + x[95] <= 1
 clq556: x[15] + x[37] + x[64] <= 1
 clq557: x[70] + x[99] <= 1
 clq558: x[84] + x[81] <= 1
 clq559: x[86] + x[71] <= 1
 clq560: x[73] + x[51] + x[60] <= 1
 clq561: x[28] + x[18] + x[122] <= 1
 clq562: x[147] + x[98] <= 1
 clq563: x[149] + x[53] <= 1
 clq564: x[140] + x[101] + x[43] <= 1
 clq565: x[103] + x[61] <= 1
 clq566: x[123] + x[12] + x[119] <= 1
 clq567: x[106] + x[34] <= 1
 clq568: x[92] + x[7] + x[65] <= 1
 clq569: x[19] + x[150] <= 1
 clq570: x[129] + x[82] <= 1
 clq571: x[97] + x[16] <= 1
 clq572: x[95] + x[68] + x[110] <= 1
 clq573: x[69] + x[128] <= 1
 clq574: x[135] + x[67] <= 1
 clq575: x[130] + x[90] + x[24] <= 1
 clq576: x[45] + x[63] <= 1
 clq577: x[1] + x[41] <= 1
 clq578: x[134] + x[46] <= 1
 clq579: x[136] + x[75] + x[30] <= 1
 clq580: x[10] + x[105] + x[32] <= 1
 clq581: x[145] + x[100] <= 1
 clq582: x[146] + x[5] <= 1
 clq583: x[21] + x[48] <= 1
 clq584: x[22] + x[144] <= 1
 clq585: x[44] + x[9] <= 1
 clq586: x[74] + x[84] <= 1
 clq587: x[79] + x[86] <= 1
 clq588: x[126] + x[47] <= 1
 clq589: x[127] + x[132] <= 1
 clq590: x[2] + x[8] + x[113] <= 1
 clq591: x[141] + x[53] <= 1
 clq592: x[35] + x[14] <= 1
 clq593: x[39] + x[19] <= 1
 clq594: x[49] + x[40] <= 1
 clq595: x[50] + x[103] <= 1
 clq596: x[57] + x[118] <= 1
 clq597: x[111] + x[137] <= 1
 clq598: x[120] + x[85] <= 1
 clq599: x[121] + x[65] + x[63] <= 1
 clq600: x[35] + x[124] <= 1
 clq601: x[139] + x[112] <= 1
 clq602: x[148] + x[23] <= 1
 clq603: x[42] + x[97] <= 1
 clq604: x[54] + x[147] + x[81] <= 1
 clq605: x[56] + x[40] <= 1
 clq606: x[70] + x[106] <= 1
 clq607: x[80] + x[17] + x[122] <= 1
 clq608: x[87] + x[109] <= 1
 clq609: x[94] + x[20] <= 1
 clq610: x[129] + x[115] <= 1
 clq611: x[66] + x[13] <= 1
 clq612: x[25] + x[55] <= 1
 clq613: x[26] + x[99] <= 1
 clq614: x[135] + x[149] <= 1
 clq615: x[101] + x[104] <= 1
 clq616: x[72] + x[108] <= 1
 clq617: x[61] + x[83] <= 1
 clq618: x[82] + x[52] <= 1
 clq619: x[150] + x[16] <= 1
 clq620: x[100] + x[137] + x[38] <= 1
 clq621: x[71] + x[97] <= 1
 clq622: x[45] + x[150] + x[128] <= 1
 clq623: x[78] + x[29] <= 1
 clq624: x[98] + x[67] <= 1
 clq625: x[107] + x[59] <= 1
 clq626: x[1] + x[142] <= 1
 clq627: x[133] + x[34] <= 1
 clq628: x[134] + x[143] <= 1
 clq629: x[11] + x[104] + x[55] <= 1
 clq630: x[145] + x[144] <= 1
 clq631: x[146] + x[74] <= 1
 clq632: x[21] + x[148] <= 1
 clq633: x[22] + x[46] <= 1
 clq634: x[41] + x[24] <= 1
 clq635: x[44] + x[16] <= 1
 clq636: x[58] + x[110] <= 1
 clq637: x[62] + x[114] <= 1
 clq638: x[79] + x[117] <= 1
 clq639: x[93] + x[67] <= 1
 clq640: x[102] + x[6] <= 1
 clq641: x[116] + x[103] + x[31] <= 1
 clq642: x[125] + x[106] <= 1
 clq643: x[126] + x[53] <= 1
 clq644: x[127] + x[109] <= 1
 clq645: x[4] + x[13] <= 1
 clq646: x[5] + x[92] + x[87] <= 1
 clq647: x[141] + x[86] <= 1
 clq648: x[132] + x[39] <= 1
 clq649: x[49] + x[52] <= 1
 clq650: x[50] + x[78] <= 1
 clq651: x[130] + x[57] <= 1
 clq652: x[88] + x[56] <= 1
 clq653: x[91] + x[85] <= 1
 clq654: x[111] + x[69] <= 1
 clq655: x[120] + x[131] + x[34] <= 1
 clq656: x[124] + x[48] <= 1
 clq657: x[3] + x[9] + x[70] <= 1
 clq658: x[139] + x[98] <= 1
 clq659: x[42] + x[51] <= 1
 clq660: x[64] + x[94] <= 1
 clq661: x[84] + x[123] <= 1
 clq662: x[129] + x[112] <= 1
 clq663: x[33] + x[115] <= 1
 clq664: x[66] + x[18] + x[40] <= 1
 clq665: x[25] + x[119] <= 1
 clq666: x[4] + x[147] + x[26] <= 1
 clq667: x[149] + x[14] <= 1
 clq668: x[27] + x[83] <= 1
 clq669: x[47] + x[43] <= 1
 clq670: x[60] + x[67] <= 1
 clq671: x[89] + x[83] <= 1
 clq672: x[99] + x[72] <= 1
 clq673: x[108] + x[82] <= 1
 clq674: x[7] + x[43] <= 1
 clq675: x[19] + x[69] <= 1
 clq676: x[61] + x[68] <= 1
 clq677: x[71] + x[76] <= 1
 clq678: x[138] + x[118] <= 1
 clq679: x[13] + x[23] <= 1
 clq680: x[102] + x[20] + x[16] <= 1
 clq681: x[59] + x[29] <= 1
 clq682: x[41] + x[148] + x[96] <= 1
 clq683: x[1] + x[79] <= 1
 clq684: x[133] + x[134] <= 1
 clq685: x[136] + x[73] <= 1
 clq686: x[10] + x[75] <= 1
 clq687: x[142] + x[24] <= 1
 clq688: x[15] + x[112] <= 1
 clq689: x[145] + x[19] <= 1
 clq690: x[146] + x[42] <= 1
 clq691: x[21] + x[17] <= 1
 clq692: x[1] + x[22] + x[114] <= 1
 clq693: x[28] + x[139] <= 1
 clq694: x[37] + x[149] <= 1
 clq695: x[44] + x[50] <= 1
 clq696: x[58] + x[119] <= 1
 clq697: x[62] + x[89] <= 1
 clq698: x[74] + x[85] <= 1
 clq699: x[93] + x[109] <= 1
 clq700: x[105] + x[141] <= 1
 clq701: x[125] + x[84] <= 1
 clq702: x[126] + x[91] <= 1
 clq703: x[127] + x[117] <= 1
 clq704: x[6] + x[72] <= 1
 clq705: x[135] + x[71] <= 1
 clq706: x[8] + x[48] <= 1
 clq707: x[132] + x[14] <= 1
 clq708: x[35] + x[107] <= 1
 clq709: x[39] + x[121] <= 1
 clq710: x[49] + x[23] <= 1
 clq711: x[57] + x[128] <= 1
 clq712: x[88] + x[104] <= 1
 clq713: x[90] + x[78] <= 1
 clq714: x[111] + x[113] <= 1
 clq715: x[124] + x[27] <= 1
 clq716: x[30] + x[72] <= 1
 clq717: x[32] + x[77] <= 1
 clq718: x[54] + x[101] <= 1
 clq719: x[56] + x[86] <= 1
 clq720: x[64] + x[95] <= 1
 clq721: x[80] + x[7] <= 1
 clq722: x[94] + x[110] <= 1
 clq723: x[115] + x[144] <= 1
 clq724: x[51] + x[143] <= 1
 clq725: x[25] + x[63] <= 1
 clq726: x[140] + x[76] <= 1
 clq727: x[47] + x[67] <= 1
 clq728: x[53] + x[97] + x[29] <= 1
 clq729: x[136] + x[60] <= 1
 clq730: x[99] + x[46] <= 1
 clq731: x[123] + x[69] <= 1
 clq732: x[106] + x[61] <= 1
 clq733: x[103] + x[108] <= 1
 clq734: x[135] + x[82] <= 1
 clq735: x[9] + x[38] <= 1
 clq736: x[150] + x[118] + x[12] <= 1
 clq737: x[98] + x[59] <= 1
 clq738: x[101] + x[52] <= 1
 clq739: x[129] + x[81] <= 1
 clq740: x[2] + x[57] <= 1
 clq741: x[133] + x[49] <= 1
 clq742: x[134] + x[55] <= 1
 clq743: x[10] + x[76] <= 1
 clq744: x[11] + x[74] <= 1
 clq745: x[130] + x[35] <= 1
 clq746: x[142] + x[58] <= 1
 clq747: x[15] + x[30] <= 1
 clq748: x[145] + x[59] <= 1
 clq749: x[146] + x[95] <= 1
 clq750: x[21] + x[25] <= 1
 clq751: x[28] + x[123] <= 1
 clq752: x[37] + x[90] <= 1
 clq753: x[44] + x[121] <= 1
 clq754: x[62] + x[17] <= 1
 clq755: x[73] + x[19] <= 1
 clq756: x[79] + x[126] <= 1
 clq757: x[93] + x[141] <= 1
 clq758: x[105] + x[82] <= 1
 clq759: x[116] + x[138] <= 1
 clq760: x[125] + x[124] <= 1
 clq761: x[127] + x[90] + x[96] <= 1
 clq762: x[5] + x[27] <= 1
 clq763: x[6] + x[42] <= 1
 clq764: x[8] + x[18] <= 1
 clq765: x[132] + x[33] <= 1
 clq766: x[39] + x[20] <= 1
 clq767: x[50] + x[52] <= 1
 clq768: x[2] + x[75] + x[91] <= 1
 clq769: x[88] + x[36] <= 1
 clq770: x[111] + x[42] + x[65] <= 1
 clq771: x[113] + x[131] <= 1
 clq772: x[120] + x[137] <= 1
 clq773: x[139] + x[85] <= 1
 clq774: x[32] + x[115] <= 1
 clq775: x[54] + x[26] <= 1
 clq776: x[56] + x[77] <= 1
 clq777: x[64] + x[45] <= 1
 clq778: x[70] + x[89] <= 1
 clq779: x[80] + x[81] <= 1
 clq780: x[84] + x[13] + x[140] <= 1
 clq781: x[86] + x[108] <= 1
 clq782: x[87] + x[82] <= 1
 clq783: x[94] + x[51] <= 1
 clq784: x[112] + x[38] <= 1
 clq785: x[149] + x[117] <= 1
 clq786: x[47] + x[144] <= 1
 clq787: x[121] + x[48] <= 1
 clq788: x[60] + x[109] <= 1
 clq789: x[99] + x[43] <= 1
 clq790: x[14] + x[106] <= 1
 clq791: x[31] + x[110] <= 1
 clq792: x[7] + x[137] <= 1
 clq793: x[49] + x[100] <= 1
 clq794: x[113] + x[61] <= 1
 clq795: x[18] + x[143] <= 1
 clq796: x[68] + x[71] <= 1
 clq797: x[55] + x[23] <= 1
 clq798: x[57] + x[122] <= 1
 clq799: x[50] + x[128] <= 1
 clq800: x[11] + x[46] <= 1
 clq801: x[78] + x[107] <= 1
 clq802: x[97] + x[119] <= 1
 clq803: x[118] + x[83] <= 1
 clq804: x[145] + x[24] <= 1
 clq805: x[109] + x[63] <= 1
 clq806: x[133] + x[26] <= 1
 clq807: x[134] + x[130] <= 1
 clq808: x[136] + x[126] <= 1
 clq809: x[10] + x[44] <= 1
 clq810: x[142] + x[83] <= 1
 clq811: x[15] + x[60] <= 1
 clq812: x[146] + x[100] <= 1
 clq813: x[21] + x[89] <= 1
 clq814: x[22] + x[88] <= 1
 clq815: x[28] + x[76] <= 1
 clq816: x[37] + x[147] <= 1
 clq817: x[41] + x[32] <= 1
 clq818: x[58] + x[122] <= 1
 clq819: x[62] + x[30] <= 1
 clq820: x[73] + x[17] <= 1
 clq821: x[74] + x[129] <= 1
 clq822: x[79] + x[110] <= 1
 clq823: x[93] + x[46] <= 1
 clq824: x[102] + x[106] <= 1
 clq825: x[105] + x[123] <= 1
 clq826: x[114] + x[139] <= 1
 clq827: x[116] + x[95] <= 1
 clq828: x[125] + x[43] <= 1
 clq829: x[4] + x[124] <= 1
 clq830: x[5] + x[98] <= 1
 clq831: x[6] + x[141] <= 1
 clq832: x[135] + x[33] <= 1
 clq833: x[8] + x[51] <= 1
 clq834: x[132] + x[34] <= 1
 clq835: x[35] + x[81] <= 1
 clq836: x[39] + x[66] <= 1
 clq837: x[120] + x[53] <= 1
 clq838: x[3] + x[56] <= 1
 clq839: x[9] + x[144] <= 1
 clq840: x[148] + x[85] <= 1
 clq841: x[10] + x[54] <= 1
 clq842: x[145] + x[64] <= 1
 clq843: x[70] + x[115] <= 1
 clq844: x[80] + x[149] <= 1
 clq845: x[86] + x[128] <= 1
 clq846: x[87] + x[45] <= 1
 clq847: x[94] + x[138] <= 1
 clq848: x[35] + x[112] <= 1
 clq849: x[25] + x[26] <= 1
 clq850: x[27] + x[81] <= 1
 clq851: x[47] + x[19] <= 1
 clq852: x[48] + x[38] <= 1
 clq853: x[77] + x[46] <= 1
 clq854: x[99] + x[40] <= 1
 clq855: x[101] + x[16] <= 1
 clq856: x[103] + x[107] <= 1
 clq857: x[104] + x[20] <= 1
 clq858: x[14] + x[17] <= 1
 clq859: x[146] + x[31] <= 1
 clq860: x[98] + x[72] <= 1
 clq861: x[108] + x[143] <= 1
 clq862: x[116] + x[7] <= 1
 clq863: x[66] + x[131] <= 1
 clq864: x[75] + x[61] <= 1
 clq865: x[89] + x[117] <= 1
 clq866: x[68] + x[67] <= 1
 clq867: x[33] + x[69] <= 1
 clq868: x[130] + x[71] <= 1
 clq869: x[97] + x[12] <= 1
 clq870: x[82] + x[23] <= 1
 clq871: x[11] + x[78] <= 1
 clq872: x[113] + x[119] <= 1
 clq873: x[45] + x[24] <= 1
 clq874: x[58] + x[59] <= 1
 clq875: x[122] + x[52] <= 1
 clq876: x[67] + x[29] <= 1
 clq877: x[43] + x[63] <= 1
 clq878: x[1] + x[28] <= 1
 clq879: x[133] + x[68] <= 1
 clq880: x[134] + x[27] <= 1
 clq881: x[136] + x[121] <= 1
 clq882: x[142] + x[63] <= 1
 clq883: x[10] + x[15] <= 1
 clq884: x[21] + x[138] <= 1
 clq885: x[22] + x[84] <= 1
 clq886: x[37] + x[148] <= 1
 clq887: x[41] + x[60] <= 1
 clq888: x[44] + x[57] <= 1
 clq889: x[146] + x[62] <= 1
 clq890: x[73] + x[49] <= 1
 clq891: x[74] + x[86] <= 1
 clq892: x[79] + x[87] <= 1
 clq893: x[93] + x[49] <= 1
 clq894: x[102] + x[112] <= 1
 clq895: x[105] + x[94] <= 1
 clq896: x[114] + x[12] <= 1
 clq897: x[1] + x[125] <= 1
 clq898: x[126] + x[31] <= 1
 clq899: x[127] + x[25] <= 1
 clq900: x[4] + x[88] <= 1
 clq901: x[5] + x[77] <= 1
 clq902: x[6] + x[13] <= 1
 clq903: x[135] + x[72] <= 1
 clq904: x[8] + x[56] <= 1
 clq905: x[141] + x[101] <= 1
 clq906: x[73] + x[132] <= 1
 clq907: x[39] + x[29] <= 1
 clq908: x[50] + x[92] <= 1
 clq909: x[91] + x[54] <= 1
 clq910: x[111] + x[3] <= 1
 clq911: x[35] + x[120] <= 1
 clq912: x[58] + x[124] <= 1
 clq913: x[129] + x[118] <= 1
 clq914: x[9] + x[137] <= 1
 clq915: x[139] + x[48] <= 1
 clq916: x[113] + x[30] <= 1
 clq917: x[3] + x[32] <= 1
 clq918: x[64] + x[137] <= 1
 clq919: x[70] + x[80] <= 1
 clq920: x[115] + x[131] <= 1
 clq921: x[51] + x[61] <= 1
 clq922: x[18] + x[69] <= 1
 clq923: x[147] + x[71] <= 1
 clq924: x[140] + x[83] <= 1
 clq925: x[149] + x[96] <= 1
 clq926: x[36] + x[106] <= 1
 clq927: x[47] + x[104] <= 1
 clq928: x[53] + x[38] <= 1
 clq929: x[99] + x[144] <= 1
 clq930: x[91] + x[103] <= 1
 clq931: x[123] + x[78] <= 1
 clq932: x[114] + x[14] <= 1
 clq933: x[95] + x[12] <= 1
 clq934: x[108] + x[85] <= 1
 clq935: x[7] + x[40] <= 1
 clq936: x[19] + x[52] <= 1
 clq937: x[100] + x[109] <= 1
 clq938: x[106] + x[143] <= 1
 clq939: x[18] + x[55] <= 1
 clq940: x[130] + x[117] <= 1
 clq941: x[150] + x[107] <= 1
 clq942: x[76] + x[29] <= 1
 clq943: x[36] + x[110] <= 1
 clq944: x[23] + x[34] <= 1
 clq945: x[47] + x[128] <= 1
 clq946: x[39] + x[119] <= 1
 clq947: x[20] + x[52] <= 1
 clq948: x[66] + x[24] <= 1
 clq949: x[65] + x[59] <= 1
 clq950: x[129] + x[16] <= 1
 clq951: x[2] + x[22] <= 1
 clq952: x[133] + x[141] <= 1
 clq953: x[134] + x[15] <= 1
 clq954: x[136] + x[143] <= 1
 clq955: x[11] + x[54] <= 1
 clq956: x[142] + x[32] <= 1
 clq957: x[145] + x[149] <= 1
 clq958: x[21] + x[30] <= 1
 clq959: x[28] + x[104] <= 1
 clq960: x[37] + x[61] <= 1
 clq961: x[41] + x[126] <= 1
 clq962: x[44] + x[62] <= 1
 clq963: x[74] + x[90] <= 1
 clq964: x[79] + x[57] <= 1
 clq965: x[93] + x[121] <= 1
 clq966: x[102] + x[88] <= 1
 clq967: x[105] + x[148] <= 1
 clq968: x[116] + x[125] <= 1
 clq969: x[127] + x[124] <= 1
 clq970: x[4] + x[64] <= 1
 clq971: x[5] + x[103] <= 1
 clq972: x[6] + x[14] <= 1
 clq973: x[135] + x[122] <= 1
 clq974: x[8] + x[31] <= 1
 clq975: x[132] + x[84] <= 1
 clq976: x[33] + x[147] <= 1
 clq977: x[50] + x[117] <= 1
 clq978: x[75] + x[17] <= 1
 clq979: x[92] + x[23] <= 1
 clq980: x[111] + x[118] <= 1
 clq981: x[120] + x[43] <= 1
 clq982: x[9] + x[26] <= 1
 clq983: x[139] + x[56] <= 1
 clq984: x[42] + x[67] <= 1
 clq985: x[70] + x[24] <= 1
 clq986: x[80] + x[82] <= 1
 clq987: x[86] + x[123] <= 1
 clq988: x[87] + x[95] <= 1
 clq989: x[94] + x[77] <= 1
 clq990: x[112] + x[128] <= 1
 clq991: x[115] + x[68] <= 1
 clq992: x[51] + x[27] <= 1
 clq993: x[13] + x[69] <= 1
 clq994: x[25] + x[100] <= 1
 clq995: x[140] + x[48] <= 1
 clq996: x[53] + x[63] <= 1
 clq997: x[60] + x[85] <= 1
 clq998: x[89] + x[34] <= 1
 clq999: x[98] + x[7] <= 1
 clq1000: x[99] + x[45] <= 1
 clq1001: x[101] + x[83] <= 1
 clq1002: x[138] + x[108] <= 1
 clq1003: x[72] + x[107] <= 1
 clq1004: x[19] + x[38] <= 1
 clq1005: x[131] + x[55] <= 1
 clq1006: x[40] + x[97] <= 1
 clq1007: x[144] + x[119] <= 1
 clq1008: x[150] + x[76] <= 1
 clq1009: x[71] + x[20] <= 1
 clq1010: x[110] + x[78] <= 1
 clq1011: x[46] + x[16] <= 1
 clq1012: x[109] + x[59] <= 1
 clq1013: x[96] + x[81] <= 1
Bounds
Binaries
 x[1] x[2] x[133] x[134] x[136] x[10] x[11] x[130] x[142] x[15] x[145]
 x[146] x[21] x[22] x[28] x[37] x[41] x[44] x[58] x[62] x[73] x[74] x[79]
 x[93] x[102] x[105] x[114] x[116] x[125] x[126] x[127] x[4] x[5] x[6]
 x[135] x[8] x[141] x[132] x[33] x[35] x[39] x[49] x[50] x[57] x[75] x[88]
 x[90] x[91] x[92] x[111] x[113] x[120] x[121] x[124] x[3] x[129] x[9]
 x[139] x[148] x[30] x[32] x[42] x[54] x[56] x[64] x[66] x[70] x[80] x[84]
 x[86] x[87] x[94] x[112] x[115] x[51] x[13] x[18] x[147] x[25] x[26]
 x[140] x[149] x[27] x[36] x[47] x[48] x[53] x[60] x[77] x[89] x[98] x[99]
 x[101] x[103] x[104] x[123] x[138] x[14] x[31] x[45] x[72] x[95] x[106]
 x[108] x[7] x[19] x[65] x[131] x[100] x[40] x[137] x[43] x[61] x[143]
 x[144] x[55] x[82] x[117] x[17] x[150] x[38] x[68] x[69] x[71] x[76] x[97]
 x[110] x[118] x[12] x[23] x[122] x[128] x[46] x[78] x[107] x[109] x[119]
 x[67] x[20] x[83] x[24] x[59] x[16] x[52] x[96] x[81] x[29] x[63] x[34]
 x[85]
End
